(set-logic QF_LRA)
(declare-fun T1 () Real )
(declare-fun T2 () Real )
(declare-fun T3 () Real )
(declare-fun T4 () Real )
(declare-fun T5 () Real )
(declare-fun T6 () Real )
(declare-fun Z () Real )
(declare-fun k () Real )
(assert (let
(( $goal (>= Z k) ))
(let
((
$phi ( and 
(or ( <= ( + T1 16 ) T2 ) ( <= ( + T2 22 ) T1 ) )
(or ( <= ( + T1 46 )  ( + T2 22 ) ) ( <= ( + T2 28 )( + T1 16 ) ) )
(or ( <= ( + T1 144 )  ( + T2 28 ) ) ( <= ( + T2 52 )( + T1 46 ) ) )
(or ( <= ( + T1 199 )  ( + T2 52 ) ) ( <= ( + T2 120 )( + T1 144 ) ) )
(or ( <= ( + T1 292 )  ( + T2 120 ) ) ( <= ( + T2 149 )( + T1 199 ) ) )
(or ( <= ( + T1 307 )  ( + T2 149 ) ) ( <= ( + T2 156 )( + T1 292 ) ) )
(or ( <= ( + T1 311 )  ( + T2 156 ) ) ( <= ( + T2 197 )( + T1 307 ) ) )
(or ( <= ( + T1 355 )  ( + T2 197 ) ) ( <= ( + T2 214 )( + T1 311 ) ) )
(or ( <= ( + T1 16 ) T3 ) ( <= ( + T3 68 ) T1 ) )
(or ( <= ( + T1 46 )  ( + T3 68 ) ) ( <= ( + T3 69 )( + T1 16 ) ) )
(or ( <= ( + T1 144 )  ( + T3 69 ) ) ( <= ( + T3 148 )( + T1 46 ) ) )
(or ( <= ( + T1 199 )  ( + T3 148 ) ) ( <= ( + T3 223 )( + T1 144 ) ) )
(or ( <= ( + T1 292 )  ( + T3 223 ) ) ( <= ( + T3 230 )( + T1 199 ) ) )
(or ( <= ( + T1 307 )  ( + T3 230 ) ) ( <= ( + T3 289 )( + T1 292 ) ) )
(or ( <= ( + T1 311 )  ( + T3 289 ) ) ( <= ( + T3 364 )( + T1 307 ) ) )
(or ( <= ( + T1 355 )  ( + T3 364 ) ) ( <= ( + T3 433 )( + T1 311 ) ) )
(or ( <= ( + T1 16 ) T4 ) ( <= ( + T4 13 ) T1 ) )
(or ( <= ( + T1 46 )  ( + T4 13 ) ) ( <= ( + T4 23 )( + T1 16 ) ) )
(or ( <= ( + T1 144 )  ( + T4 23 ) ) ( <= ( + T4 97 )( + T1 46 ) ) )
(or ( <= ( + T1 199 )  ( + T4 97 ) ) ( <= ( + T4 116 )( + T1 144 ) ) )
(or ( <= ( + T1 292 )  ( + T4 116 ) ) ( <= ( + T4 200 )( + T1 199 ) ) )
(or ( <= ( + T1 307 )  ( + T4 200 ) ) ( <= ( + T4 226 )( + T1 292 ) ) )
(or ( <= ( + T1 311 )  ( + T4 226 ) ) ( <= ( + T4 235 )( + T1 307 ) ) )
(or ( <= ( + T1 355 )  ( + T4 235 ) ) ( <= ( + T4 286 )( + T1 311 ) ) )
(or ( <= ( + T1 16 ) T5 ) ( <= ( + T5 55 ) T1 ) )
(or ( <= ( + T1 46 )  ( + T5 55 ) ) ( <= ( + T5 61 )( + T1 16 ) ) )
(or ( <= ( + T1 144 )  ( + T5 61 ) ) ( <= ( + T5 67 )( + T1 46 ) ) )
(or ( <= ( + T1 199 )  ( + T5 67 ) ) ( <= ( + T5 166 )( + T1 144 ) ) )
(or ( <= ( + T1 292 )  ( + T5 166 ) ) ( <= ( + T5 238 )( + T1 199 ) ) )
(or ( <= ( + T1 307 )  ( + T5 238 ) ) ( <= ( + T5 299 )( + T1 292 ) ) )
(or ( <= ( + T1 311 )  ( + T5 299 ) ) ( <= ( + T5 394 )( + T1 307 ) ) )
(or ( <= ( + T1 355 )  ( + T5 394 ) ) ( <= ( + T5 487 )( + T1 311 ) ) )
(or ( <= ( + T1 16 ) T6 ) ( <= ( + T6 66 ) T1 ) )
(or ( <= ( + T1 46 )  ( + T6 66 ) ) ( <= ( + T6 84 )( + T1 16 ) ) )
(or ( <= ( + T1 144 )  ( + T6 84 ) ) ( <= ( + T6 144 )( + T1 46 ) ) )
(or ( <= ( + T1 199 )  ( + T6 144 ) ) ( <= ( + T6 190 )( + T1 144 ) ) )
(or ( <= ( + T1 292 )  ( + T6 190 ) ) ( <= ( + T6 266 )( + T1 199 ) ) )
(or ( <= ( + T1 307 )  ( + T6 266 ) ) ( <= ( + T6 366 )( + T1 292 ) ) )
(or ( <= ( + T1 311 )  ( + T6 366 ) ) ( <= ( + T6 381 )( + T1 307 ) ) )
(or ( <= ( + T1 355 )  ( + T6 381 ) ) ( <= ( + T6 476 )( + T1 311 ) ) )
(or ( <= ( + T2 22 ) T3 ) ( <= ( + T3 68 ) T2 ) )
(or ( <= ( + T2 28 )  ( + T3 68 ) ) ( <= ( + T3 69 )( + T2 22 ) ) )
(or ( <= ( + T2 52 )  ( + T3 69 ) ) ( <= ( + T3 148 )( + T2 28 ) ) )
(or ( <= ( + T2 120 )  ( + T3 148 ) ) ( <= ( + T3 223 )( + T2 52 ) ) )
(or ( <= ( + T2 149 )  ( + T3 223 ) ) ( <= ( + T3 230 )( + T2 120 ) ) )
(or ( <= ( + T2 156 )  ( + T3 230 ) ) ( <= ( + T3 289 )( + T2 149 ) ) )
(or ( <= ( + T2 197 )  ( + T3 289 ) ) ( <= ( + T3 364 )( + T2 156 ) ) )
(or ( <= ( + T2 214 )  ( + T3 364 ) ) ( <= ( + T3 433 )( + T2 197 ) ) )
(or ( <= ( + T2 22 ) T4 ) ( <= ( + T4 13 ) T2 ) )
(or ( <= ( + T2 28 )  ( + T4 13 ) ) ( <= ( + T4 23 )( + T2 22 ) ) )
(or ( <= ( + T2 52 )  ( + T4 23 ) ) ( <= ( + T4 97 )( + T2 28 ) ) )
(or ( <= ( + T2 120 )  ( + T4 97 ) ) ( <= ( + T4 116 )( + T2 52 ) ) )
(or ( <= ( + T2 149 )  ( + T4 116 ) ) ( <= ( + T4 200 )( + T2 120 ) ) )
(or ( <= ( + T2 156 )  ( + T4 200 ) ) ( <= ( + T4 226 )( + T2 149 ) ) )
(or ( <= ( + T2 197 )  ( + T4 226 ) ) ( <= ( + T4 235 )( + T2 156 ) ) )
(or ( <= ( + T2 214 )  ( + T4 235 ) ) ( <= ( + T4 286 )( + T2 197 ) ) )
(or ( <= ( + T2 22 ) T5 ) ( <= ( + T5 55 ) T2 ) )
(or ( <= ( + T2 28 )  ( + T5 55 ) ) ( <= ( + T5 61 )( + T2 22 ) ) )
(or ( <= ( + T2 52 )  ( + T5 61 ) ) ( <= ( + T5 67 )( + T2 28 ) ) )
(or ( <= ( + T2 120 )  ( + T5 67 ) ) ( <= ( + T5 166 )( + T2 52 ) ) )
(or ( <= ( + T2 149 )  ( + T5 166 ) ) ( <= ( + T5 238 )( + T2 120 ) ) )
(or ( <= ( + T2 156 )  ( + T5 238 ) ) ( <= ( + T5 299 )( + T2 149 ) ) )
(or ( <= ( + T2 197 )  ( + T5 299 ) ) ( <= ( + T5 394 )( + T2 156 ) ) )
(or ( <= ( + T2 214 )  ( + T5 394 ) ) ( <= ( + T5 487 )( + T2 197 ) ) )
(or ( <= ( + T2 22 ) T6 ) ( <= ( + T6 66 ) T2 ) )
(or ( <= ( + T2 28 )  ( + T6 66 ) ) ( <= ( + T6 84 )( + T2 22 ) ) )
(or ( <= ( + T2 52 )  ( + T6 84 ) ) ( <= ( + T6 144 )( + T2 28 ) ) )
(or ( <= ( + T2 120 )  ( + T6 144 ) ) ( <= ( + T6 190 )( + T2 52 ) ) )
(or ( <= ( + T2 149 )  ( + T6 190 ) ) ( <= ( + T6 266 )( + T2 120 ) ) )
(or ( <= ( + T2 156 )  ( + T6 266 ) ) ( <= ( + T6 366 )( + T2 149 ) ) )
(or ( <= ( + T2 197 )  ( + T6 366 ) ) ( <= ( + T6 381 )( + T2 156 ) ) )
(or ( <= ( + T2 214 )  ( + T6 381 ) ) ( <= ( + T6 476 )( + T2 197 ) ) )
(or ( <= ( + T3 68 ) T4 ) ( <= ( + T4 13 ) T3 ) )
(or ( <= ( + T3 69 )  ( + T4 13 ) ) ( <= ( + T4 23 )( + T3 68 ) ) )
(or ( <= ( + T3 148 )  ( + T4 23 ) ) ( <= ( + T4 97 )( + T3 69 ) ) )
(or ( <= ( + T3 223 )  ( + T4 97 ) ) ( <= ( + T4 116 )( + T3 148 ) ) )
(or ( <= ( + T3 230 )  ( + T4 116 ) ) ( <= ( + T4 200 )( + T3 223 ) ) )
(or ( <= ( + T3 289 )  ( + T4 200 ) ) ( <= ( + T4 226 )( + T3 230 ) ) )
(or ( <= ( + T3 364 )  ( + T4 226 ) ) ( <= ( + T4 235 )( + T3 289 ) ) )
(or ( <= ( + T3 433 )  ( + T4 235 ) ) ( <= ( + T4 286 )( + T3 364 ) ) )
(or ( <= ( + T3 68 ) T5 ) ( <= ( + T5 55 ) T3 ) )
(or ( <= ( + T3 69 )  ( + T5 55 ) ) ( <= ( + T5 61 )( + T3 68 ) ) )
(or ( <= ( + T3 148 )  ( + T5 61 ) ) ( <= ( + T5 67 )( + T3 69 ) ) )
(or ( <= ( + T3 223 )  ( + T5 67 ) ) ( <= ( + T5 166 )( + T3 148 ) ) )
(or ( <= ( + T3 230 )  ( + T5 166 ) ) ( <= ( + T5 238 )( + T3 223 ) ) )
(or ( <= ( + T3 289 )  ( + T5 238 ) ) ( <= ( + T5 299 )( + T3 230 ) ) )
(or ( <= ( + T3 364 )  ( + T5 299 ) ) ( <= ( + T5 394 )( + T3 289 ) ) )
(or ( <= ( + T3 433 )  ( + T5 394 ) ) ( <= ( + T5 487 )( + T3 364 ) ) )
(or ( <= ( + T3 68 ) T6 ) ( <= ( + T6 66 ) T3 ) )
(or ( <= ( + T3 69 )  ( + T6 66 ) ) ( <= ( + T6 84 )( + T3 68 ) ) )
(or ( <= ( + T3 148 )  ( + T6 84 ) ) ( <= ( + T6 144 )( + T3 69 ) ) )
(or ( <= ( + T3 223 )  ( + T6 144 ) ) ( <= ( + T6 190 )( + T3 148 ) ) )
(or ( <= ( + T3 230 )  ( + T6 190 ) ) ( <= ( + T6 266 )( + T3 223 ) ) )
(or ( <= ( + T3 289 )  ( + T6 266 ) ) ( <= ( + T6 366 )( + T3 230 ) ) )
(or ( <= ( + T3 364 )  ( + T6 366 ) ) ( <= ( + T6 381 )( + T3 289 ) ) )
(or ( <= ( + T3 433 )  ( + T6 381 ) ) ( <= ( + T6 476 )( + T3 364 ) ) )
(or ( <= ( + T4 13 ) T5 ) ( <= ( + T5 55 ) T4 ) )
(or ( <= ( + T4 23 )  ( + T5 55 ) ) ( <= ( + T5 61 )( + T4 13 ) ) )
(or ( <= ( + T4 97 )  ( + T5 61 ) ) ( <= ( + T5 67 )( + T4 23 ) ) )
(or ( <= ( + T4 116 )  ( + T5 67 ) ) ( <= ( + T5 166 )( + T4 97 ) ) )
(or ( <= ( + T4 200 )  ( + T5 166 ) ) ( <= ( + T5 238 )( + T4 116 ) ) )
(or ( <= ( + T4 226 )  ( + T5 238 ) ) ( <= ( + T5 299 )( + T4 200 ) ) )
(or ( <= ( + T4 235 )  ( + T5 299 ) ) ( <= ( + T5 394 )( + T4 226 ) ) )
(or ( <= ( + T4 286 )  ( + T5 394 ) ) ( <= ( + T5 487 )( + T4 235 ) ) )
(or ( <= ( + T4 13 ) T6 ) ( <= ( + T6 66 ) T4 ) )
(or ( <= ( + T4 23 )  ( + T6 66 ) ) ( <= ( + T6 84 )( + T4 13 ) ) )
(or ( <= ( + T4 97 )  ( + T6 84 ) ) ( <= ( + T6 144 )( + T4 23 ) ) )
(or ( <= ( + T4 116 )  ( + T6 144 ) ) ( <= ( + T6 190 )( + T4 97 ) ) )
(or ( <= ( + T4 200 )  ( + T6 190 ) ) ( <= ( + T6 266 )( + T4 116 ) ) )
(or ( <= ( + T4 226 )  ( + T6 266 ) ) ( <= ( + T6 366 )( + T4 200 ) ) )
(or ( <= ( + T4 235 )  ( + T6 366 ) ) ( <= ( + T6 381 )( + T4 226 ) ) )
(or ( <= ( + T4 286 )  ( + T6 381 ) ) ( <= ( + T6 476 )( + T4 235 ) ) )
(or ( <= ( + T5 55 ) T6 ) ( <= ( + T6 66 ) T5 ) )
(or ( <= ( + T5 61 )  ( + T6 66 ) ) ( <= ( + T6 84 )( + T5 55 ) ) )
(or ( <= ( + T5 67 )  ( + T6 84 ) ) ( <= ( + T6 144 )( + T5 61 ) ) )
(or ( <= ( + T5 166 )  ( + T6 144 ) ) ( <= ( + T6 190 )( + T5 67 ) ) )
(or ( <= ( + T5 238 )  ( + T6 190 ) ) ( <= ( + T6 266 )( + T5 166 ) ) )
(or ( <= ( + T5 299 )  ( + T6 266 ) ) ( <= ( + T6 366 )( + T5 238 ) ) )
(or ( <= ( + T5 394 )  ( + T6 366 ) ) ( <= ( + T6 381 )( + T5 299 ) ) )
(or ( <= ( + T5 487 )  ( + T6 381 ) ) ( <= ( + T6 476 )( + T5 394 ) ) )
( <= ( + T1 355 ) Z)
( <= ( + T2 214 ) Z)
( <= ( + T3 433 ) Z)
( <= ( + T4 286 ) Z)
( <= ( + T5 487 ) Z)
( <= ( + T6 476 ) Z)
( >= T1 0 )
( >= T2 0 )
( >= T3 0 )
( >= T4 0 )
( >= T5 0 )
( >= T6 0 )
) )
)(=> $phi $goal))))